p tw 155 450
0 1
0 2
0 33
0 56
1 2
1 131
2 34
2 57
2 110
2 150
3 4
3 44
3 124
3 127
3 149
3 154
4 25
4 67
4 68
5 6
5 7
5 8
5 9
5 47
5 65
5 105
5 125
5 138
5 152
6 7
6 8
6 9
6 55
6 64
6 97
6 106
7 8
7 9
7 61
7 98
8 9
8 59
8 75
8 76
8 77
9 29
9 30
9 31
9 32
10 11
10 84
10 107
10 151
10 152
11 85
11 108
11 125
12 13
12 87
12 88
12 89
13 129
13 133
13 146
13 153
14 15
14 36
14 37
14 38
15 49
15 69
15 90
15 96
15 104
16 17
16 22
16 78
16 115
16 142
17 23
17 24
18 19
18 20
18 21
18 22
18 76
18 119
19 20
19 21
19 22
19 41
19 75
20 21
20 22
20 58
20 59
20 60
21 22
21 31
21 40
21 77
22 78
22 115
22 142
23 24
23 115
23 116
24 58
24 78
25 26
25 67
25 68
26 74
26 126
27 28
27 38
27 101
27 102
27 103
27 104
28 99
28 100
29 30
29 31
29 32
29 61
29 62
29 63
29 64
30 31
30 32
30 97
30 98
31 32
31 40
31 77
32 134
33 34
33 35
33 56
34 35
34 57
34 110
34 150
35 71
35 72
35 73
36 37
36 38
36 90
36 91
37 38
37 48
37 49
38 101
38 102
38 103
38 104
39 40
39 41
39 79
39 112
39 121
40 41
40 77
41 75
42 43
42 44
42 45
42 46
42 47
42 81
42 82
42 83
43 44
43 45
43 46
43 47
43 93
43 123
43 135
43 144
43 147
44 45
44 46
44 47
44 124
44 127
44 149
44 154
45 46
45 47
45 122
45 143
46 47
46 139
47 65
47 105
47 125
47 138
47 152
48 49
48 70
49 69
49 90
49 96
49 104
50 51
50 79
50 80
51 112
51 113
51 114
52 53
52 54
52 55
52 71
52 109
52 110
52 111
53 54
53 55
53 63
53 72
53 137
53 141
54 55
54 128
54 136
55 64
55 97
55 106
56 57
57 110
57 150
58 59
58 60
58 78
59 60
59 75
59 76
59 77
60 119
60 151
61 62
61 63
61 64
61 98
62 63
62 64
62 88
62 99
62 102
62 132
62 133
62 134
63 64
63 72
63 137
63 141
64 97
64 106
65 66
65 105
65 125
65 138
65 152
66 84
66 85
66 86
67 68
67 74
68 126
68 127
68 128
69 70
69 90
69 96
69 104
71 72
71 73
71 109
71 110
71 111
72 73
72 137
72 141
73 140
73 153
74 126
75 76
75 77
76 77
76 119
78 115
78 142
79 80
79 112
79 121
80 114
81 82
81 83
81 147
81 154
82 83
82 135
83 144
83 145
84 85
84 86
84 107
84 151
84 152
85 86
85 108
85 125
86 138
86 139
87 88
87 89
87 100
87 129
87 130
88 89
88 99
88 102
88 132
88 133
88 134
89 146
90 91
90 96
90 104
91 94
91 103
91 118
91 120
91 121
92 93
92 145
93 123
93 135
93 144
93 147
94 95
94 96
94 103
94 118
94 120
94 121
95 96
95 101
95 117
96 104
97 98
97 106
99 100
99 102
99 132
99 133
99 134
100 129
100 130
101 102
101 103
101 104
101 117
102 103
102 104
102 132
102 133
102 134
103 104
103 118
103 120
103 121
105 106
105 125
105 138
105 152
107 108
107 151
107 152
108 125
109 110
109 111
109 136
109 137
110 111
110 150
111 140
111 141
112 113
112 114
112 121
113 114
113 120
115 116
115 142
116 148
117 118
118 120
118 121
119 151
120 121
122 123
122 124
122 143
123 124
123 135
123 144
123 147
124 127
124 149
124 154
125 138
125 152
126 127
126 128
127 128
127 149
127 154
128 136
129 130
129 133
129 146
129 153
130 132
131 150
132 133
132 134
133 134
133 146
133 153
135 144
135 147
136 137
137 141
138 139
138 152
140 141
140 153
142 148
143 149
144 145
144 147
146 153
147 154
149 154
151 152
